File : Instances/p65
Used 135s
28115

0 0 1 0 0 0 1 0 1 0 1 1 0 1 0 0 1 1 0 0 0 0 0 0 0 0 0 1 0 0 
27 6 2 27 2 6 2 27 27 17 6 17 13 13 6 27 13 10 27 27 27 16 2 27 10 27 27 17 6 2 6 6 6 16 27 6 8 8 16 16 11 8 6 8 8 17 13 2 6 10 27 16 2 16 8 6 11 8 27 11 6 17 11 8 13 11 2 17 17 11 27 6 6 8 10 13 10 10 8 16 10 17 8 11 8 13 6 2 27 11 17 6 11 11 2 13 11 6 17 17 17 16 11 27 6 2 6 27 16 13 6 6 27 6 11 8 17 11 17 8 8 11 17 6 8 16 2 11 8 17 11 16 11 10 13 8 13 13 17 10 11 27 11 11 11 2 16 16 27 11 27 17 10 17 8 11 2 16 13 13 13 27 10 2 10 27 2 8 13 2 13 8 17 10 8 2 27 10 8 10 2 16 2 6 11 8 17 10 17 2 2 2 6 6 11 6 11 2 10 6 
